\ Model Wyndor Problem
\ LP format - for model browsing. Use MPS format to capture full model detail.
Maximize
  3 x_1 + 5 x_2
Subject To
 Constraint_1: x_1 <= 4
 Constraint_2: 2 x_2 <= 12
 Constraint_3: 3 x_1 + 2 x_2 <= 18
Bounds
End
